\Generated by Cardinal Operations

Maximize
   2.1 x_1 + 3 x_2 + 3.75 x_3 + 4.25 x_4 + 3.25 x_5 + 3.5 x_6 + 4.06 x_7 
   + 4.38 x_8 + 8.949999999999999 x_9 + 2.5 x_10 + 3 x_11 + 2.5 x_12 
   + 2.55 x_13 + 3 x_14 + 3.1 x_15 + 4 x_16 + 2.5 x_17 + 3 x_18 + 2.5 x_19 
   + 3 x_20 + 10.95 x_21 + 8.949999999999999 x_22 + 9.5 x_23 + 23 x_24 
   + 28 x_25 + 13.33 x_26 + 6.4 x_27 + 2 x_28 + 2.5 x_29 + 3 x_30 
   + 14.75 x_31 + 20.45 x_32 + 15 x_33 + 21 x_34 + 2 x_35 + 2.2 x_36 
   + 2.5 x_37 + 3 x_38 + 3.5 x_39 + 10 x_40 + 9.25 x_41 
   + 8.949999999999999 x_42 + 3.5 x_43 + 3.75 x_44 + 4.5 x_45 + 4.75 x_46 
   + 18 x_47 + 12 x_48 + 14 x_49 + 23 x_50 + 12 x_51 + 18 x_52 + 22.5 x_53 
   + 23 x_54 + 28 x_55 + 7.6 x_56 + 2.2 x_57 + 3 x_58 + 3.5 x_59 + 3.5 x_60 
   + 3.75 x_61 + 4.38 x_62 + 4.69 x_63 + 19.75 x_64 + 45 x_65 + 2.45 x_66 
   + 3.1 x_67 + 3.75 x_68 + 0.8 x_69 + 2.65 x_70 + 3 x_71 + 3.25 x_72 
   + 3.75 x_73 + 4.06 x_74 + 4.5 x_75 + 4.69 x_76 + 5.63 x_77 + 0.8 x_78 
Subject To
 inventory_constraint: x_1 <= 4910
 x_2 <= 32225
 x_3 <= 44340
 x_4 <= 43240
 x_5 <= 10035
 x_6 <= 18655
 x_7 <= 105
 x_8 <= 145
 x_9 <= 1515
 x_10 <= 44540
 x_11 <= 42770
 x_12 <= 45775
 x_13 <= 20855
 x_14 <= 20870
 x_15 <= 22020
 x_16 <= 21730
 x_17 <= 22385
 x_18 <= 21100
 x_19 <= 44445
 x_20 <= 42195
 x_21 <= 610
 x_22 <= 765
 x_23 <= 840
 x_24 <= 25
 x_25 <= 1080
 x_26 <= 740
 x_27 <= 590
 x_28 <= 22420
 x_29 <= 22050
 x_30 <= 19985
 x_31 <= 845
 x_32 <= 750
 x_33 <= 740
 x_34 <= 1090
 x_35 <= 20890
 x_36 <= 22165
 x_37 <= 22735
 x_38 <= 42940
 x_39 <= 21135
 x_40 <= 670
 x_41 <= 795
 x_42 <= 1525
 x_43 <= 20035
 x_44 <= 21645
 x_45 <= 23340
 x_46 <= 22265
 x_47 <= 915
 x_48 <= 1175
 x_49 <= 1520
 x_50 <= 80
 x_51 <= 35
 x_52 <= 1070
 x_53 <= 885
 x_54 <= 25
 x_55 <= 85
 x_56 <= 1105
 x_57 <= 21550
 x_58 <= 21925
 x_59 <= 21585
 x_60 <= 9640
 x_61 <= 24940
 x_62 <= 130
 x_63 <= 95
 x_64 <= 730
 x_65 <= 1300
 x_66 <= 20090
 x_67 <= 20090
 x_68 <= 21975
 x_69 <= 38030
 x_70 <= 2170
 x_71 <= 9100
 x_72 <= 20765
 x_73 <= 10025
 x_74 <= 225
 x_75 <= 9850
 x_76 <= 115
 x_77 <= 75
 x_78 <= 14525
 demand_constraint: x_1 <= 1746
 x_2 <= 10716
 x_3 <= 14743
 x_4 <= 14400
 x_5 <= 3995
 x_6 <= 7404
 x_7 <= 42
 x_8 <= 58
 x_9 <= 606
 x_10 <= 14786
 x_11 <= 14194
 x_12 <= 15217
 x_13 <= 6913
 x_14 <= 6921
 x_15 <= 7392
 x_16 <= 7225
 x_17 <= 7456
 x_18 <= 7003
 x_19 <= 14729
 x_20 <= 14037
 x_21 <= 244
 x_22 <= 306
 x_23 <= 336
 x_24 <= 10
 x_25 <= 432
 x_26 <= 296
 x_27 <= 236
 x_28 <= 7439
 x_29 <= 7366
 x_30 <= 6686
 x_31 <= 338
 x_32 <= 300
 x_33 <= 296
 x_34 <= 436
 x_35 <= 6936
 x_36 <= 7315
 x_37 <= 7610
 x_38 <= 14282
 x_39 <= 6999
 x_40 <= 268
 x_41 <= 318
 x_42 <= 610
 x_43 <= 6679
 x_44 <= 7201
 x_45 <= 7738
 x_46 <= 7442
 x_47 <= 366
 x_48 <= 457
 x_49 <= 598
 x_50 <= 32
 x_51 <= 14
 x_52 <= 423
 x_53 <= 354
 x_54 <= 10
 x_55 <= 34
 x_56 <= 442
 x_57 <= 7173
 x_58 <= 7325
 x_59 <= 7128
 x_60 <= 3835
 x_61 <= 9948
 x_62 <= 52
 x_63 <= 38
 x_64 <= 292
 x_65 <= 477
 x_66 <= 6686
 x_67 <= 6651
 x_68 <= 7338
 x_69 <= 12623
 x_70 <= 731
 x_71 <= 3632
 x_72 <= 8225
 x_73 <= 3990
 x_74 <= 90
 x_75 <= 3907
 x_76 <= 46
 x_77 <= 30
 x_78 <= 4759
Generals
 x_1  x_2  x_3  x_4  x_5  x_6  x_7  x_8  x_9  x_10  x_11  x_12  x_13  x_14  
 x_15  x_16  x_17  x_18  x_19  x_20  x_21  x_22  x_23  x_24  x_25  x_26  
 x_27  x_28  x_29  x_30  x_31  x_32  x_33  x_34  x_35  x_36  x_37  x_38  
 x_39  x_40  x_41  x_42  x_43  x_44  x_45  x_46  x_47  x_48  x_49  x_50  
 x_51  x_52  x_53  x_54  x_55  x_56  x_57  x_58  x_59  x_60  x_61  x_62  
 x_63  x_64  x_65  x_66  x_67  x_68  x_69  x_70  x_71  x_72  x_73  x_74  
 x_75  x_76  x_77  x_78  
END

